historic/scripts/pywr_glpk_debug.lp
\* Problem: Unknown *\

Minimize
 obj: - 1190 x_1 - 1200 x_2 - 2240 x_3 - 2250 x_4 - 2200 x_5 - 1150 x_6
 - 1190 x_7 - 1200 x_8 - 1150 x_9 - 100 x_10 - 1190 x_11 - 1200 x_12
 - 2240 x_13 - 2250 x_14 - 2200 x_15 - 1150 x_16 - 1190 x_17 - 1200 x_18
 - 1150 x_19 - 100 x_20

Subject To
 r_1: + x_16 + x_15 + x_14 + x_13 + x_12 + x_11 + x_6 + x_5 + x_4 + x_3
 + x_2 + x_1 - ~r_1 = 0
 r_2: + x_11 + x_1 - ~r_2 = 0
 r_3: + x_12 + x_2 - ~r_3 = 0
 r_4: + x_16 + x_15 + x_14 + x_13 + x_6 + x_5 + x_4 + x_3 = 0
 r_5: + x_19 + x_18 + x_17 + x_15 + x_14 + x_13 + x_9 + x_8 + x_7 + x_5
 + x_4 + x_3 - ~r_5 = 0
 r_6: + x_17 + x_13 + x_7 + x_3 - ~r_6 = 0
 r_7: + x_18 + x_14 + x_8 + x_4 - ~r_7 = 0
 r_8: + x_19 + x_15 + x_9 + x_5 - ~r_8 = 0
 r_9: + x_20 + x_19 + x_18 + x_17 + x_16 + x_15 + x_14 + x_13 + x_12
 + x_11 + x_10 + x_9 + x_8 + x_7 + x_6 + x_5 + x_4 + x_3 + x_2 + x_1
 >= 0
 r_10: + x_20 + x_19 + x_18 + x_17 + x_16 + x_15 + x_14 + x_13 + x_10
 + x_9 + x_8 + x_7 + x_6 + x_5 + x_4 + x_3 >= 0
 r_11: + x_10 + x_9 + x_8 + x_7 + x_6 + x_5 + x_4 + x_3 + x_2 + x_1
 = 1204.6725
 r_12: + x_20 + x_19 + x_16 + x_15 + x_10 + x_9 + x_6 + x_5 >= 0
 r_13: + x_20 + x_19 + x_18 + x_17 + x_16 + x_15 + x_14 + x_13 + x_12
 + x_11 = 116.0055

Bounds
 0 <= ~r_1 <= 3.44529372189149
 0 <= ~r_2 <= 2.75623497751319
 0 <= ~r_3 <= 0.689058744378298
 0 <= ~r_5 <= 44.8218779789894
 0 <= ~r_6 <= 35.8575023831915
 0 <= ~r_7 <= 18.0183949475537
 0 <= ~r_8 <= -9.05401935175585

End
