historic/scripts/pywr_glpk_debug.mps
* Problem:
* Class:      LP
* Rows:       8
* Columns:    6
* Non-zeros:  26
* Format:     Free MPS
*
NAME
ROWS
 N R0000000
 E R0000001
 E R0000002
 E R0000003
 E R0000004
 G R0000005
 E R0000006
 G R0000007
 E R0000008
COLUMNS
 C0000001 R0000000 -1190 R0000006 1
 C0000001 R0000005 1 R0000002 1
 C0000001 R0000001 1
 C0000002 R0000000 -1200 R0000006 1
 C0000002 R0000005 1 R0000003 1
 C0000002 R0000001 1
 C0000003 R0000000 -1150 R0000007 1
 C0000003 R0000006 1 R0000005 1
 C0000003 R0000004 1 R0000001 1
 C0000004 R0000000 -1190 R0000008 1
 C0000004 R0000005 1 R0000002 1
 C0000004 R0000001 1
 C0000005 R0000000 -1200 R0000008 1
 C0000005 R0000005 1 R0000003 1
 C0000005 R0000001 1
 C0000006 R0000000 -1150 R0000008 1
 C0000006 R0000007 1 R0000005 1
 C0000006 R0000004 1 R0000001 1
RHS
 RHS1 R0000006 594.9 R0000008 107.082
ENDATA
